language ESSENCE' 1.0

letting n_boats be 5
letting n_periods be 4
letting crew_Function1D be [2, 2, 2, 2, 4; int(1..5)]
letting capacity_Function1D be [6, 8, 12, 12, 12; int(1..5)]
letting fin1 be 5
letting fin2 be 12
letting fin3 be 5
letting fin4 be 4
